90 15273306
26 46 67 23 16 41 64 89 28 79 10 71 29 39 75 24 90 48 18 86 76 42 19 85 60 78 50 35 65 81 1 87 40 17 36 22 58 45 44 63 12 25 53 59 38 70 20 51 30 84 33 55 2 37 62 3 49 77 6 66 43 9 83 69 54 14 68 7 72 27 13 47 31 15 21 82 73 4 57 32 52 61 80 8 88 56 74 5 11 34 
